
Gurobi 10.0.1 (linux64) logging started Sun Nov 26 15:59:44 2023

Set parameter LogFile to value "ArtificialInstance/ExperimentV2/S4T5K1/BaRo/gurobi91.txt"
Gurobi Optimizer version 10.0.1 build v10.0.1rc0 (linux64)

CPU model: AMD EPYC 7H12 64-Core Processor, instruction set [SSE2|AVX|AVX2]
Thread count: 128 physical cores, 128 logical processors, using up to 32 threads

Academic license 656792 - for non-commercial use only - registered to b.___@student.vu.nl
Optimize a model with 2424 rows, 3601 columns and 12484 nonzeros
Model fingerprint: 0xf46c3f9b
Variable types: 1 continuous, 3600 integer (3600 binary)
Coefficient statistics:
  Matrix range     [1e+00, 4e+01]
  Objective range  [1e+00, 2e+01]
  Bounds range     [1e+00, 1e+00]
  RHS range        [1e+00, 1e+00]
Found heuristic solution: objective 376.5748675
Presolve time: 0.02s
Presolved: 2424 rows, 3601 columns, 12484 nonzeros
Variable types: 1 continuous, 3600 integer (3600 binary)

Root relaxation: objective 3.972745e+01, 2494 iterations, 0.10 seconds (0.07 work units)

    Nodes    |    Current Node    |     Objective Bounds      |     Work
 Expl Unexpl |  Obj  Depth IntInf | Incumbent    BestBd   Gap | It/Node Time

     0     0   39.72745    0  400  376.57487   39.72745  89.5%     -    0s
H    0     0                     303.3296830   39.72745  86.9%     -    0s
H    0     0                     126.8052068   39.72745  68.7%     -    0s
H    0     0                      68.1591012   39.72745  41.7%     -    0s
H    0     0                      59.4454389   45.93282  22.7%     -    0s
     0     0   45.93282    0  579   59.44544   45.93282  22.7%     -    0s
     0     0   46.00892    0  531   59.44544   46.00892  22.6%     -    0s
     0     0   46.00892    0  600   59.44544   46.00892  22.6%     -    0s
H    0     0                      58.7849959   50.49363  14.1%     -    0s
     0     0   50.49363    0  509   58.78500   50.49363  14.1%     -    0s
     0     0   50.67277    0  575   58.78500   50.67277  13.8%     -    0s
     0     0   50.67277    0  576   58.78500   50.67277  13.8%     -    0s
     0     0   51.57251    0  461   58.78500   51.57251  12.3%     -    0s
     0     0   51.90001    0  490   58.78500   51.90001  11.7%     -    0s
     0     0   51.90001    0  495   58.78500   51.90001  11.7%     -    0s
     0     0   52.74643    0  432   58.78500   52.74643  10.3%     -    0s
     0     0   52.76292    0  531   58.78500   52.76292  10.2%     -    0s
     0     0   52.77084    0  541   58.78500   52.77084  10.2%     -    0s
     0     0   52.77084    0  541   58.78500   52.77084  10.2%     -    0s
     0     0   53.31231    0  637   58.78500   53.31231  9.31%     -    1s
     0     0   53.31623    0  618   58.78500   53.31623  9.30%     -    1s
     0     0   53.45645    0  706   58.78500   53.45645  9.06%     -    1s
     0     0   53.46863    0  697   58.78500   53.46863  9.04%     -    1s
     0     0   53.46863    0  701   58.78500   53.46863  9.04%     -    1s
     0     0   53.65373    0  683   58.78500   53.65373  8.73%     -    1s
     0     0   53.65595    0  690   58.78500   53.65595  8.73%     -    1s
     0     0   53.77834    0  692   58.78500   53.77834  8.52%     -    1s
     0     0   53.80300    0  711   58.78500   53.80300  8.47%     -    1s
     0     0   53.95764    0  692   58.78500   53.95764  8.21%     -    1s
     0     0   53.95764    0  682   58.78500   53.95764  8.21%     -    1s
     0     0   54.03679    0  719   58.78500   54.03679  8.08%     -    1s
     0     0   54.03679    0  726   58.78500   54.03679  8.08%     -    1s
     0     0   54.03679    0  730   58.78500   54.03679  8.08%     -    1s
     0     0   54.14958    0  714   58.78500   54.14958  7.89%     -    1s
     0     0   54.96730    0  733   58.78500   54.96730  6.49%     -    1s
     0     0   54.96730    0  734   58.78500   54.96730  6.49%     -    1s
     0     0   54.96730    0  732   58.78500   54.96730  6.49%     -    1s
     0     0   55.02730    0  735   58.78500   55.02730  6.39%     -    1s
     0     0   56.24506    0  759   58.78500   56.24506  4.32%     -    1s
     0     0   56.24506    0  741   58.78500   56.24506  4.32%     -    1s
     0     0   56.24506    0  750   58.78500   56.24506  4.32%     -    1s

Cutting planes:
  Gomory: 8
  Clique: 2
  Zero half: 148
  RLT: 106

Explored 1 nodes (12241 simplex iterations) in 2.01 seconds (1.35 work units)
Thread count was 32 (of 128 available processors)

Solution count 6: 58.785 59.4454 68.1591 ... 376.575

Optimal solution found (tolerance 1.00e-04)
Best objective 5.878499587496e+01, best bound 5.878499587496e+01, gap 0.0000%
